-529 -573 0
-131 -573 0
-573 0
49 0
1 0
-45 0
-525 0
-93 0
-5 0
529 0
89 0
41 0
177 0
489 0
9 0
129 0
441 0
-485 0
-133 0
-445 0
-85 0
-565 0
-493 0
-533 0
-13 0
-221 0
-301 0
-23 0
-125 0
-53 0
-453 0
-165 0
-173 0
-213 0
-317 0
-365 0
-405 0
-253 0
-37 0
-397 0
401 0
569 0
217 0
361 0
169 0
81 0
481 0
409 0
449 0
97 0
27 0
35 0
497 0
209 0
57 0
249 0
257 0
289 0
297 0
137 0
153 0
201 0
233 0
241 0
281 0
321 0
329 0
369 0
17 0
305 0
11 0
385 0
15 0
19 0
0
